#SOLVERNAME# PAJ_Gurobi_MOSEK_msd_scale_subponly_noinit
#SOLVER# Pajarito.PajaritoSolver(3, 3600.0, 1.0e-5, true, Gurobi.GurobiSolver(nothing, Any[(:OutputFlag, 1), (:Threads, 8), (:IntFeasTol, 1.0e-9), (:FeasibilityTol, 1.0e-6), (:MIPGap, 1.0e-5)]), Pajarito.UnsetSolver(), 0, false, true, Mosek.MosekSolver(Any[(:LOG, 0), (:NUM_THREADS, 8), (:MSK_DPAR_INTPNT_CO_TOL_REL_GAP, 1.0e-10), (:MSK_DPAR_INTPNT_CO_TOL_PFEAS, 1.0e-10), (:MSK_DPAR_INTPNT_CO_TOL_DFEAS, 1.0e-10), (:MSK_DPAR_INTPNT_CO_TOL_NEAR_REL, 1000.0)]), true, true, false, false, true, false, false, true, false, false, false, false, false, false, true, 10.0, true, false, false, false, 1.0e-12, 1.0e-6, false, "")
#INSTANCE# expdesign_D_8_4.cbf.gz
#TIMELIMIT# 3600.0

Problem dimensions:
       variables |      61
     constraints |     148
   nonzeros in A |     289

Cones summary:
Cone             | Count   | Min dim.  | Max dim. 
   Primal expon. |       4 |         3 |         3
   Pos. semidef. |       2 |       4^2 |       8^2

Variable types:
      continuous |      53
         integer |       8

Transforming data...               0.00s

Creating conic subproblem...       0.22s

Building MIP model...              0.00s

Solving conic relaxation...        0.03s
 - Relaxation status    =        Optimal
 - Relaxation bound     =       0.840961
Academic license - for non-commercial use only
Optimize a model with 126 rows, 61 columns and 587 nonzeros
Variable types: 53 continuous, 8 integer (0 binary)
Coefficient statistics:
  Matrix range     [2e-11, 2e+03]
  Objective range  [1e+00, 1e+00]
  Bounds range     [0e+00, 0e+00]
  RHS range        [1e+00, 2e+02]
Warning: Model contains large matrix coefficient range
         Consider reformulating model or setting NumericFocus parameter
         to avoid numerical issues.
Presolve removed 102 rows and 29 columns
Presolve time: 0.00s
Presolved: 24 rows, 32 columns, 256 nonzeros
Variable types: 24 continuous, 8 integer (0 binary)

Root relaxation: objective 8.409610e-01, 40 iterations, 0.00 seconds

    Nodes    |    Current Node    |     Objective Bounds      |     Work
 Expl Unexpl |  Obj  Depth IntInf | Incumbent    BestBd   Gap | It/Node Time

     0     0    0.84096    0    2          -    0.84096      -     -    0s
     0     0    0.84096    0    2          -    0.84096      -     -    0s
H    0     2                       1.7095852    0.84096  50.8%     -    0s
     0     2    0.84096    0    2    1.70959    0.84096  50.8%     -    0s
*    1     0               1       0.8433065    0.84096  0.28%  16.0    0s

Cutting planes:
  Lazy constraints: 33

Explored 4 nodes (117 simplex iterations) in 0.97 seconds
Thread count was 8 (of 16 available processors)

Solution count 2: 0.843307 1.70959 

Optimal solution found (tolerance 1.00e-05)
Best objective 8.433065499784e-01, best bound 8.433065499784e-01, gap 0.0000%

Starting MIP-solver-driven algorithm
Mosek problem is Mosek.MSK_PRO_STA_ILL_POSED, solution is Mosek.MSK_SOL_STA_PRIM_ILLPOSED_CER, response is Mosek.MSK_RES_TRM_STALL

WARNING: Conic solver failure: returned status Unknown

MIP-solver-driven algorithm summary:
 - Status               =        Optimal
 - Best feasible        =  +8.433069e-01
 - Best bound           =  +8.433065e-01
 - Relative opt. gap    =      4.308e-07
 - Total time (s)       =       1.25e+00

Timers (s):
 - Setup                =   2.18e-01
 -- Transform data      =   1.36e-04
 -- Create conic data   =   2.17e-01
 -- Create MIP data     =   3.72e-04
 - Algorithm            =   1.03e+00
 -- Solve relaxation    =   2.71e-02
 -- Get relaxation cuts =   2.30e-02
 -- MIP solver driving  =   9.81e-01
 -- Solve subproblems   =   9.58e-02
 -- Get subproblem cuts =   9.73e-02
 -- Get separation cuts =   0.00e+00

Counters:
 - Lazy callbacks       =    12
 -- Integer repeats     =     8
 -- Conic subproblems   =     5
 --- Infeasible         =     0
 --- Optimal            =     4
 --- Suboptimal         =     0
 --- UserLimit          =     0
 --- ConicFailure       =     0
 --- Other status       =     1
 -- Feasible solutions  =     4
 --- From subproblems   =     4
 --- In lazy callback   =     0
 - Heuristic callbacks  =     6
 -- Solutions passed    =     2

Solution returned by conic solver

Rounds of full separation/subproblem cuts, and count of cuts added:
Cone             | Subp.  | Sep.   | Total  | Relax. | Viol. 
   Primal expon. |     52 |      0 |     15 |      4 |     15
   Pos. semidef. |     26 |      0 |     21 |     12 |     21

Distance to feasibility (negative indicates strict feasibility):
Cone             | Variable  | Constraint
          Linear |        NA |  1.11e-16
   Primal expon. |        NA | -8.98e-09
   Pos. semidef. |        NA |  8.06e-09

Distance to integrality of integer/binary variables:
         integer |  0.00e+00

#STATUS# Optimal
#OBJVAL# 0.8433069132975806
#OBJBOUND# 0.8433065499783604
#NODECOUNT# 4
#TIMESOLVER# 1.2493720054626465
#TIMEALL# 1.249939203262329
#SOLUTION# [-0.4173154167312571,0.16136231363674797,-0.1889236724840844,-0.39843013771898705,0.6588130958779944,-0.0,-0.0,-0.0,-0.0,1.1751106632085717,-0.0,-0.0,-0.0,-0.0,0.8278497010890173,-0.0,-0.0,-0.0,-0.0,0.6713731915920131,0.6588130958779944,-0.0,-0.0,-0.0,-0.17385310207693153,1.1751106632085717,-0.0,-0.0,0.15039619978098054,0.21636719341472688,0.8278497010890173,-0.0,0.03043243880474944,-0.5774064928012483,0.2822897594842112,0.6713731915920131,0.6588130833106007,-0.17385310259906073,0.1503962002282585,0.03043243889336006,-0.17385310259906073,1.2209884664628443,0.17667938907786002,-0.5854372631943813,0.1503962002282585,0.17667938907786002,0.9020212707703558,0.18292204273361243,0.03043243889336006,-0.5854372631943813,0.18292204273361248,1.0527538473668578,-0.8433069132975806,3.0,-0.0,3.0,3.0,-0.0,-0.0,3.0,-0.0]
